2000	50	0,6	0,15	5,34858080	39
2000	50	0,6	0,15	4,83879550	39
2000	50	0,6	0,15	5,48124230	39
2000	50	0,6	0,15	5,94452460	39
2000	50	0,6	0,15	4,82288130	39
2000	50	0,6	0,15	5,47322900	39
2000	50	0,6	0,15	5,77540890	39
2000	50	0,6	0,15	5,29700920	40
2000	50	0,6	0,15	5,18290450	39
2000	50	0,6	0,15	4,84410510	39
